6979
9488
1328
9076
1573
9884
5015
8184
6054
3218
5211
7818
6593
5669
1111
3689
8495
5196
4552
6261
6859
4705
10115
9410
5011
2118
1301
5623
9351
5736
6010
9315
1596
8200
8360
7295
7844
5047
7896
6235
6829
2870
7239
6354
7897
3997
803
1778
8425
413
